Minimize
  - 87 y_0 - 110 y_1 - 97 y_2 - 105 y_3 - 75 y_4 - 84 y_5 - 103 y_7 - 49 y_8
   - 39 y_9 - 80 y_10 - 52 y_11 - 112 y_12 - 30 y_13 - 52 y_14 - 23 y_15
   - 29 y_16 - 41 y_17 - 42 y_18 - 36 y_19 + 1246 Constant
Subject To
 c_0: y_2 = 1
 c_1_0: y_0 >= 1
 c_1_1: y_1 >= 1
 c_1_2: y_2 >= 1
 c_1_3: y_3 >= 1
 c_1_4: y_4 >= 1
 c_1_5: y_5 >= 1
 c_1_6: y_6 >= 1
 c_1_7: y_7 >= 1
 c_1_8: y_8 + y_11 >= 1
 c_1_9: y_9 + y_18 >= 1
 c_1_10: y_10 >= 1
 c_1_11: y_8 + y_11 >= 1
 c_1_12: y_12 >= 1
 c_1_13: y_13 + y_19 >= 1
 c_1_14: y_14 >= 1
 c_1_15: y_15 >= 1
 c_1_16: y_16 >= 1
 c_1_17: y_17 >= 1
 c_1_18: y_9 + y_18 >= 1
 c_1_19: y_13 + y_19 >= 1
Bounds
 Constant = 1
Binaries
 y_0 y_1 y_2 y_3 y_4 y_5 y_6 y_7 y_8 y_9 y_10 y_11 y_12 y_13 y_14 y_15 y_16
 y_17 y_18 y_19
End
